# Solution for model r5_t27_m7_3 Batch Number: 5
# Finished Task: 26 / 27
# Makespan: 524.0, Total Distance: 529.0, Total Time: 1.8310
# R O S F Batch
0 0 28 0.0 0.0 -1
1 1 9 0.0 0.0 -1
2 2 16 0.0 0.0 -1
3 3 22 0.0 0.0 -1
4 4 19 0.0 0.0 -1
5 1 14 175.0 195.0 0
6 3 8 310.0 341.0 0
7 1 5 118.0 145.0 0
8 3 20 379.0 418.0 2
9 1 7 45.0 81.0 0
10 2 25 290.0 326.0 0
11 0 -1 481.0 518.0 4
12 0 23 396.0 425.0 2
13 0 17 285.0 308.0 0
14 1 24 195.0 231.0 0
15 2 -1 474.0 500.0 3
16 2 21 98.0 118.0 0
17 0 12 341.0 374.0 1
18 -1 -1 -1.0 -1.0 3
19 4 30 61.0 92.0 0
20 3 -1 418.0 447.0 4
21 2 26 137.0 176.0 0
22 3 6 113.0 137.0 0
23 0 11 425.0 460.0 4
24 1 29 255.0 290.0 1
25 2 15 360.0 390.0 1
26 2 10 231.0 266.0 0
27 4 -1 469.0 505.0 4
28 0 13 242.0 275.0 0
29 1 -1 490.0 524.0 3
30 4 31 102.0 135.0 0
31 4 27 425.0 460.0 2
